TCS_Benchmarks/redos_fix/regexlib2_output_distinct_277_276_0_0.txt
\d{2,}
(\d{2,})([)]*)(\d{5,13})
\d{5,13}